Reading model...
...model read.
creating competitive generators file...
...competitive generators recorded.
Loading data...
.. real-time data read.
Compiling instance...
...instance created.
Creating Offer Mitigation (model will solve as dispatch if TRUE)...
NOTE: storage offers will not be mitigated
...storage offer mitigation file created
Converting model to MPEC...
...converted
NOTE: initial MIP solve with only storage competitive to get feasible solution
Solving...

Welcome to IBM(R) ILOG(R) CPLEX(R) Interactive Optimizer 12.9.0.0
  with Simplex, Mixed Integer & Barrier Optimizers
5725-A06 5725-A29 5724-Y48 5724-Y49 5724-Y54 5724-Y55 5655-Y21
Copyright IBM Corp. 1988, 2019.  All Rights Reserved.

Type 'help' for a list of available commands.
Type 'help' followed by a command name for more
information on commands.

CPLEX> Logfile 'cplex.log' closed.
Logfile 'C:\Users\llavin\Desktop\test826\logs\tmp2izwpb96.cplex.log' open.
CPLEX> New value for parallel optimization mode: -1
CPLEX> New value for mixed integer optimality gap tolerance: 0.05
CPLEX> New value for feasibility tolerance: 1e-09
CPLEX> New value for deterministic time limit in ticks: 100000
CPLEX> Problem 'C:\Users\llavin\Desktop\test826\logs\tmpj366l6u0.pyomo.lp' read.
Read time = 0.53 sec. (28.84 ticks)
CPLEX> Problem name         : C:\Users\llavin\Desktop\test826\logs\tmpj366l6u0.pyomo.lp
Objective sense      : Maximize
Variables            :  107783  [Nneg: 1,  Box: 44058,  Free: 8928,
                                 Binary: 54796]
Objective nonzeros   :   18420
Linear constraints   :  246903  [Less: 82866,  Greater: 118424,  Equal: 45613]
  Nonzeros           :  619263
  RHS nonzeros       :  135877

Variables            : Min LB: -5000.000        Max UB: 1000000.       
Objective nonzeros   : Min   : 0.008333333      Max   : 208.3333       
Linear constraints   :
  Nonzeros           : Min   : 0.008333333      Max   : 1000000.       
  RHS nonzeros       : Min   : 0.008333333      Max   : 1000000.       
CPLEX> CPXPARAM_Parallel                                -1
CPXPARAM_Simplex_Tolerances_Feasibility          1.0000000000000001e-09
CPXPARAM_DetTimeLimit                            100000
CPXPARAM_MIP_Tolerances_MIPGap                   0.050000000000000003
Tried aggregator 3 times.
MIP Presolve eliminated 176758 rows and 37323 columns.
MIP Presolve added 7065 rows and 0 columns.
MIP Presolve modified 51870 coefficients.
Aggregator did 26037 substitutions.
Reduced MIP has 51173 rows, 43549 columns, and 148519 nonzeros.
Reduced MIP has 17232 binaries, 0 generals, 0 SOSs, and 0 indicators.
Presolve time = 0.59 sec. (350.98 ticks)
Probing fixed 797 vars, tightened 12344 bounds.
Probing time = 0.39 sec. (17.12 ticks)
Tried aggregator 2 times.
MIP Presolve eliminated 1809 rows and 1618 columns.
MIP Presolve modified 6453 coefficients.
Aggregator did 56 substitutions.
Reduced MIP has 49308 rows, 41875 columns, and 142950 nonzeros.
Reduced MIP has 16430 binaries, 0 generals, 0 SOSs, and 0 indicators.
Presolve time = 0.27 sec. (259.89 ticks)
Probing fixed 6 vars, tightened 551 bounds.
Probing time = 0.52 sec. (19.90 ticks)
Clique table members: 85323.
MIP emphasis: balance optimality and feasibility.
MIP search method: dynamic search.
Parallel mode: opportunistic, using up to 32 threads.
Root relaxation solution time = 1.11 sec. (1984.85 ticks)

        Nodes                                         Cuts/
   Node  Left     Objective  IInf  Best Integer    Best Bound    ItCnt     Gap

      0     0        0.0000    44                      0.0000    10014         
*     0     0      integral     0        0.0000        0.0000    10057    0.00%
Elapsed time = 4.39 sec. (3886.63 ticks, tree = 0.01 MB, solutions = 1)

Root node processing (before b&c):
  Real time             =    4.41 sec. (3890.56 ticks)
Parallel b&c, 32 threads:
  Real time             =    0.00 sec. (0.00 ticks)
  Sync time (average)   =    0.00 sec.
  Wait time (average)   =    0.00 sec.
                          ------------
Total (root+branch&cut) =    4.41 sec. (3890.56 ticks)

Solution pool: 1 solution saved.

MIP - Integer optimal solution:  Objective =  2.2964741220e-10
Solution time =    4.44 sec.  Iterations = 10057  Nodes = 0
Deterministic time = 3890.87 ticks  (876.72 ticks/sec)

CPLEX> Incumbent solution written to file 'C:\Users\llavin\Desktop\test826\logs\tmp8d_gp3jy.cplex.sol'.
CPLEX> NOTE: no warmstart specified for MIP iteration, default behavior is true
NOTE: resolving with all competitive generators using storage-only solution to warmstart
Solving...

Welcome to IBM(R) ILOG(R) CPLEX(R) Interactive Optimizer 12.9.0.0
  with Simplex, Mixed Integer & Barrier Optimizers
5725-A06 5725-A29 5724-Y48 5724-Y49 5724-Y54 5724-Y55 5655-Y21
Copyright IBM Corp. 1988, 2019.  All Rights Reserved.

Type 'help' for a list of available commands.
Type 'help' followed by a command name for more
information on commands.

CPLEX> Logfile 'cplex.log' closed.
Logfile 'C:\Users\llavin\Desktop\test826\logs\tmpc9iv1oci.cplex.log' open.
CPLEX> New value for parallel optimization mode: -1
CPLEX> New value for mixed integer optimality gap tolerance: 0.05
CPLEX> New value for feasibility tolerance: 1e-09
CPLEX> New value for deterministic time limit in ticks: 100000
CPLEX> Problem 'C:\Users\llavin\Desktop\test826\logs\tmpro1ck60s.pyomo.lp' read.
Read time = 0.61 sec. (28.89 ticks)
CPLEX> MIP start file 'C:\Users\llavin\Desktop\test826\logs\tmpnns7fx3m.cplex.mst' read.
CPLEX> Problem name         : C:\Users\llavin\Desktop\test826\logs\tmpro1ck60s.pyomo.lp
Objective sense      : Maximize
Variables            :  109223  [Nneg: 1,  Box: 45498,  Free: 8928,
                                 Binary: 54796]
Objective nonzeros   :   19812
Linear constraints   :  246903  [Less: 82866,  Greater: 118424,  Equal: 45613]
  Nonzeros           :  619263
  RHS nonzeros       :  135877

Variables            : Min LB: -5000.000        Max UB: 1000000.       
Objective nonzeros   : Min   : 0.008333333      Max   : 208.3333       
Linear constraints   :
  Nonzeros           : Min   : 0.008333333      Max   : 1000000.       
  RHS nonzeros       : Min   : 0.008333333      Max   : 1000000.       
CPLEX> CPXPARAM_Parallel                                -1
CPXPARAM_Simplex_Tolerances_Feasibility          1.0000000000000001e-09
CPXPARAM_DetTimeLimit                            100000
CPXPARAM_MIP_Tolerances_MIPGap                   0.050000000000000003
Warning:  No solution found from 1 MIP starts.
Retaining values of one MIP start for possible repair.
Tried aggregator 3 times.
MIP Presolve eliminated 176758 rows and 38763 columns.
MIP Presolve added 7065 rows and 0 columns.
MIP Presolve modified 51870 coefficients.
Aggregator did 26037 substitutions.
Reduced MIP has 51173 rows, 43549 columns, and 148519 nonzeros.
Reduced MIP has 17232 binaries, 0 generals, 0 SOSs, and 0 indicators.
Presolve time = 0.63 sec. (351.71 ticks)
Probing fixed 797 vars, tightened 12344 bounds.
Probing time = 0.42 sec. (17.12 ticks)
Tried aggregator 2 times.
MIP Presolve eliminated 1809 rows and 1618 columns.
MIP Presolve modified 6453 coefficients.
Aggregator did 56 substitutions.
Reduced MIP has 49308 rows, 41875 columns, and 142950 nonzeros.
Reduced MIP has 16430 binaries, 0 generals, 0 SOSs, and 0 indicators.
Presolve time = 0.28 sec. (259.59 ticks)
Probing fixed 6 vars, tightened 551 bounds.
Probing time = 0.56 sec. (19.90 ticks)
Clique table members: 85323.
MIP emphasis: balance optimality and feasibility.
MIP search method: dynamic search.
Parallel mode: opportunistic, using up to 32 threads.
Root relaxation solution time = 1.30 sec. (2098.78 ticks)

        Nodes                                         Cuts/
   Node  Left     Objective  IInf  Best Integer    Best Bound    ItCnt     Gap

      0     0    13059.4425   285                  13059.4425    11616         
      0     0    11875.8673   257                   Cuts: 191    12009         
      0     0    11855.7884   222                    Cuts: 71    12100         
      0     0    11851.6775   223                    Cuts: 11    12136         
      0     0    11848.7501   224                    Cuts: 10    12148         
      0     0    11848.7501   224                     Cuts: 3    12152         
      0     0    11848.7501   206                 Flowcuts: 1    12153         
      0     0    11848.7501   208                     Cuts: 3    12159         
Repair heuristic found nothing.
      0    21    10342.0680   170                     Cuts: 2    12431         
Elapsed time = 15.13 sec. (9797.36 ticks, tree = 0.02 MB, solutions = 0)
    266   115    10252.3987   172                  11082.0801    13465         
    591   126     9399.3716   163                  11082.0801    13538         
    942   669    infeasible                        11082.0801    18715         
   1281   337    10606.1569   163                  11082.0801    15475         
   1507   983     8448.6696    75                  11082.0801    21467         
   1665  1146    infeasible                        11082.0801    23685         
   1825  1367     4172.7268    15                  11082.0801    26109         
   2070  1493    infeasible                        11082.0801    30125         
   2356  1573     -322.7863     5                  11082.0801    33296         
*  3043+ 1607                            0.0000    10934.0381              --- 
Elapsed time = 33.22 sec. (12475.11 ticks, tree = 15.33 MB, solutions = 1)
   4492  1419        cutoff              0.0000     6820.4723    95310     --- 

Cover cuts applied:  3
Flow cuts applied:  192
Mixed integer rounding cuts applied:  1

Root node processing (before b&c):
  Real time             =   12.05 sec. (9741.24 ticks)
Parallel b&c, 32 threads:
  Real time             =   25.30 sec. (4423.51 ticks)
  Sync time (average)   =    1.52 sec.
  Wait time (average)   =    0.00 sec.
                          ------------
Total (root+branch&cut) =   37.34 sec. (14164.75 ticks)

Solution pool: 1 solution saved.

MIP - Integer optimal solution:  Objective =  2.3408119887e-10
Solution time =   37.34 sec.  Iterations = 174975  Nodes = 5318
Deterministic time = 14165.06 ticks  (379.32 ticks/sec)

CPLEX> Incumbent solution written to file 'C:\Users\llavin\Desktop\test826\logs\tmpe3asehyx.cplex.sol'.
CPLEX> Exporting results... 
